14 6
57 78 49 74 10 41 20 49 21 77 53 4 72 24
0 74 9 92 61 13 52 1 46 48 39 94 91 84 60
33 0 72 51 16 88 41 25 54 59 80 39 97 38 72
64 63 0 8 93 32 19 1 77 66 69 9 86 74 2
78 49 4 0 7 56 3 93 64 78 22 63 94 52 81
17 72 87 90 0 77 59 64 92 6 1 28 97 7 22
83 92 5 66 53 0 32 17 62 2 15 25 25 66 30
4 19 88 86 42 43 0 84 83 90 13 56 29 53 3
72 65 76 72 7 50 49 0 40 86 69 15 68 87 74
2 5 18 12 7 57 20 49 0 2 76 81 44 31 69
74 20 11 66 81 6 90 2 64 0 2 9 10 12 7
14 11 26 29 26 63 21 9 4 91 0 95 52 68 16
35 28 46 59 12 32 48 68 31 91 20 0 34 74 9
71 74 97 10 23 37 87 92 87 63 23 48 0 64 62
66 32 9 56 32 40 13 94 50 71 78 31 94 0 21
70 93 58 11 73 78 40 99 17 10 55 39 34 73 0